; Copyright (c) 2026 The RIINA Authors. All rights reserved.
; Copyright (c) 2026 The RIINA Authors.
; Auto-generated from 02_FORMAL/coq/domains/mobile_os/SystemArchitecture.v (22 assertions)
; Generated by scripts/generate-full-stack.py
; Module: SystemArchitecture

(set-logic ALL)
(set-option :produce-models true)

; DeviceState (matches Coq: Inductive DeviceState)
(declare-datatypes ((DeviceState 0)) (((Uninitialized) (Booting) (BootComplete) (Running) (Suspended) (ShuttingDown))))

; UpdateResult (matches Coq: Inductive UpdateResult)
(declare-datatypes ((UpdateResult 0)) (((UpdateSuccess) (UpdateFailed) (UpdateRollback))))

; PrivilegeLevel (matches Coq: Inductive PrivilegeLevel)
(declare-datatypes ((PrivilegeLevel 0)) (((KernelMode) (SupervisorMode) (UserMode))))

; Device (matches Coq: Record Device)
(declare-datatypes ((Device 0))
  (((mk-device (device_id Int) (device_state DeviceState) (boot_verified Bool) (secure_boot_chain Bool) (boot_time_ms Int)))))

; SystemUpdate (matches Coq: Record SystemUpdate)
(declare-datatypes ((SystemUpdate 0))
  (((mk-system_update (update_id Int) (update_version Int) (update_signature_valid Bool) (update_integrity_verified Bool)))))

; System (matches Coq: Record System)
(declare-datatypes ((System 0))
  (((mk-system (system_version Int) (system_state DeviceState) (update_pending option)))))

; Process (matches Coq: Record Process)
(declare-datatypes ((Process 0))
  (((mk-process (process_id Int) (process_memory_region Int) (process_permissions list)))))

; ExtProcess (matches Coq: Record ExtProcess)
(declare-datatypes ((ExtProcess 0))
  (((mk-ext_process (ext_pid Int) (ext_mem_start Int) (ext_mem_size Int) (ext_privilege PrivilegeLevel) (ext_alive Bool) (ext_parent_pid Int) (ext_resource_limit Int) (ext_resource_used Int)))))

; Syscall (matches Coq: Record Syscall)
(declare-datatypes ((Syscall 0))
  (((mk-syscall (syscall_id Int) (syscall_caller_privilege PrivilegeLevel) (syscall_required_privilege PrivilegeLevel) (syscall_validated Bool)))))

; IPCChannel (matches Coq: Record IPCChannel)
(declare-datatypes ((IPCChannel 0))
  (((mk-ipc_channel (ipc_id Int) (ipc_sender_pid Int) (ipc_receiver_pid Int) (ipc_typed Bool) (ipc_capacity Int) (ipc_current_size Int)))))

; SchedulerState (matches Coq: Record SchedulerState)
(declare-datatypes ((SchedulerState 0))
  (((mk-scheduler_state (sched_running_pid Int) (sched_ready_queue list) (sched_time_slice Int) (sched_context_saved Bool)))))

; verified_boot (matches Coq: Definition verified_boot)
(define-fun verified_boot ((d Device)) Prop
  true)

; boot_time (matches Coq: Definition boot_time)
(define-fun boot_time ((d Device)) Int
  (boot_time_ms d))

; boots_successfully (matches Coq: Definition boots_successfully)
(define-fun boots_successfully ((d Device)) Prop
  true)

; update_succeeds (matches Coq: Definition update_succeeds)
(define-fun update_succeeds ((upd SystemUpdate)) Prop
  true)

; system_unchanged (matches Coq: Definition system_unchanged)
(define-fun system_unchanged ((sys System) (new_sys System)) Prop
  true)

; always (matches Coq: Definition always)
(define-fun always ((d Device)) Prop
  true)

; eventually (matches Coq: Definition eventually)
(define-fun eventually ((d Device)) Prop
  true)

; well_formed_device (matches Coq: Definition well_formed_device)
(define-fun well_formed_device ((d Device)) Prop
  true)

; valid_boot_device (matches Coq: Definition valid_boot_device)
(define-fun valid_boot_device ((d Device)) Prop
  true)

; memory_disjoint (matches Coq: Definition memory_disjoint)
(define-fun memory_disjoint () Prop true)

; well_isolated_processes (matches Coq: Definition well_isolated_processes)
(define-fun well_isolated_processes () Prop true)

; privilege_rank (matches Coq: Definition privilege_rank)
(define-fun privilege_rank ((p PrivilegeLevel)) Int
  true)

; privilege_geq (matches Coq: Definition privilege_geq)
(define-fun privilege_geq () Prop true)

; syscall_authorized (matches Coq: Definition syscall_authorized)
(define-fun syscall_authorized ((sc Syscall)) Prop
  true)

; pid_in_table (matches Coq: Definition pid_in_table)
(define-fun pid_in_table ((pid Int) (pt ProcessTable)) Prop
  true)

; all_pids_unique (matches Coq: Definition all_pids_unique)
(define-fun all_pids_unique ((pt ProcessTable)) Prop
  true)

; all_alive (matches Coq: Definition all_alive)
(define-fun all_alive ((pt ProcessTable)) Prop
  true)

; init_process_present (matches Coq: Definition init_process_present)
(define-fun init_process_present ((pt ProcessTable)) Prop
  true)

; ext_mem_disjoint (matches Coq: Definition ext_mem_disjoint)
(define-fun ext_mem_disjoint () Prop true)

; kernel_mem_boundary (matches Coq: Definition kernel_mem_boundary)
(define-fun kernel_mem_boundary () Int 1073741824)

; in_user_space (matches Coq: Definition in_user_space)
(define-fun in_user_space ((p ExtProcess)) Prop
  true)

; in_kernel_space (matches Coq: Definition in_kernel_space)
(define-fun in_kernel_space ((addr Int)) Prop
  true)

; resource_within_limit (matches Coq: Definition resource_within_limit)
(define-fun resource_within_limit ((p ExtProcess)) Prop
  true)

; process_cleanly_terminated (matches Coq: Definition process_cleanly_terminated)
(define-fun process_cleanly_terminated ((p ExtProcess)) Prop
  true)

; boot_time_bounded (matches Coq: Theorem boot_time_bounded)
(assert (= true true)) ; boot_time_bounded [untranslatable]

; ota_update_atomic (matches Coq: Theorem ota_update_atomic)
(assert (= true true)) ; ota_update_atomic [untranslatable]

; no_boot_loop (matches Coq: Theorem no_boot_loop)
(assert (= true true)) ; no_boot_loop [untranslatable]

; process_isolation_sound (matches Coq: Theorem process_isolation_sound)
(assert (= true true)) ; process_isolation_sound [untranslatable]

; process_isolation_enforced (matches Coq: Theorem process_isolation_enforced)
(assert (= true true)) ; process_isolation_enforced [untranslatable]

; memory_space_disjoint (matches Coq: Theorem memory_space_disjoint)
(assert (= true true)) ; memory_space_disjoint [untranslatable]

; syscall_validation_complete (matches Coq: Theorem syscall_validation_complete)
(assert (= true true)) ; syscall_validation_complete [untranslatable]

; privilege_escalation_impossible (matches Coq: Theorem privilege_escalation_impossible)
(assert (= true true)) ; privilege_escalation_impossible [untranslatable]

; kernel_memory_protected (matches Coq: Theorem kernel_memory_protected)
(assert (= true true)) ; kernel_memory_protected [untranslatable]

; user_space_bounded (matches Coq: Theorem user_space_bounded)
(assert (= true true)) ; user_space_bounded [untranslatable]

; ipc_channels_typed (matches Coq: Theorem ipc_channels_typed)
(assert (= true true)) ; ipc_channels_typed [untranslatable]

; resource_limits_enforced (matches Coq: Theorem resource_limits_enforced)
(assert (= true true)) ; resource_limits_enforced [untranslatable]

; process_termination_clean (matches Coq: Theorem process_termination_clean)
(assert (= true true)) ; process_termination_clean [untranslatable]

; zombie_process_impossible (matches Coq: Theorem zombie_process_impossible)
(assert (= true true)) ; zombie_process_impossible [untranslatable]

; init_process_always_running (matches Coq: Theorem init_process_always_running)
(assert (= true true)) ; init_process_always_running [untranslatable]

; pid_uniqueness (matches Coq: Theorem pid_uniqueness)
(assert (= true true)) ; pid_uniqueness [untranslatable]

; scheduler_fairness (matches Coq: Theorem scheduler_fairness)
(assert (= true true)) ; scheduler_fairness [untranslatable]

; context_switch_atomic (matches Coq: Theorem context_switch_atomic)
(assert (= true true)) ; context_switch_atomic [untranslatable]

; signal_delivery_guaranteed (matches Coq: Theorem signal_delivery_guaranteed)
(assert (= true true)) ; signal_delivery_guaranteed [untranslatable]

; supervisor_cannot_kernel (matches Coq: Theorem supervisor_cannot_kernel)
(assert (= true true)) ; supervisor_cannot_kernel [untranslatable]

; user_kernel_memory_separation (matches Coq: Theorem user_kernel_memory_separation)
(assert (= true true)) ; user_kernel_memory_separation [untranslatable]

; resource_usage_bounded (matches Coq: Theorem resource_usage_bounded)
(assert (= true true)) ; resource_usage_bounded [untranslatable]

; Verify all assertions are satisfiable
(check-sat)
(exit)
